c Reduced graph for 3-FullIns_3 generated by Cyril Grelier
p edge 80 346
e 1 2
e 1 3
e 1 4
e 1 5
e 1 26
e 1 27
e 1 28
e 1 29
e 1 30
e 1 69
e 1 70
e 1 71
e 1 72
e 1 73
e 1 74
e 1 75
e 1 76
e 1 79
e 1 80
e 2 3
e 2 4
e 2 5
e 2 6
e 2 7
e 2 8
e 2 9
e 2 10
e 2 31
e 2 32
e 2 33
e 2 34
e 2 35
e 2 36
e 2 37
e 2 38
e 2 63
e 2 64
e 3 4
e 3 5
e 3 11
e 3 12
e 3 13
e 3 14
e 3 15
e 3 39
e 3 40
e 3 41
e 3 42
e 3 43
e 3 44
e 3 45
e 3 46
e 3 65
e 3 66
e 4 5
e 4 16
e 4 17
e 4 18
e 4 19
e 4 20
e 4 47
e 4 48
e 4 49
e 4 50
e 4 51
e 4 52
e 4 53
e 4 54
e 4 67
e 4 68
e 5 26
e 5 27
e 5 28
e 5 29
e 5 30
e 5 69
e 5 70
e 5 71
e 5 72
e 5 73
e 5 74
e 5 75
e 5 76
e 5 79
e 5 80
e 6 12
e 6 13
e 6 14
e 6 15
e 6 22
e 6 23
e 6 24
e 6 25
e 6 45
e 6 46
e 6 61
e 6 62
e 7 11
e 7 13
e 7 14
e 7 15
e 7 21
e 7 23
e 7 24
e 7 25
e 7 39
e 7 40
e 7 55
e 7 56
e 8 11
e 8 12
e 8 14
e 8 15
e 8 21
e 8 22
e 8 24
e 8 25
e 8 41
e 8 42
e 8 57
e 8 58
e 9 11
e 9 12
e 9 13
e 9 15
e 9 21
e 9 22
e 9 23
e 9 25
e 9 43
e 9 44
e 9 59
e 9 60
e 10 11
e 10 12
e 10 13
e 10 14
e 10 21
e 10 22
e 10 23
e 10 24
e 10 45
e 10 46
e 10 61
e 10 62
e 11 17
e 11 18
e 11 19
e 11 20
e 11 37
e 11 38
e 11 53
e 11 54
e 12 16
e 12 18
e 12 19
e 12 20
e 12 31
e 12 32
e 12 47
e 12 48
e 13 16
e 13 17
e 13 19
e 13 20
e 13 33
e 13 34
e 13 49
e 13 50
e 14 16
e 14 17
e 14 18
e 14 20
e 14 35
e 14 36
e 14 51
e 14 52
e 15 16
e 15 17
e 15 18
e 15 19
e 15 37
e 15 38
e 15 53
e 15 54
e 16 27
e 16 28
e 16 29
e 16 30
e 16 45
e 16 46
e 16 75
e 16 76
e 17 26
e 17 28
e 17 29
e 17 30
e 17 39
e 17 40
e 17 69
e 17 70
e 18 26
e 18 27
e 18 29
e 18 30
e 18 41
e 18 42
e 18 71
e 18 72
e 19 26
e 19 27
e 19 28
e 19 30
e 19 43
e 19 44
e 19 73
e 19 74
e 20 26
e 20 27
e 20 28
e 20 29
e 20 45
e 20 46
e 20 75
e 20 76
e 21 22
e 21 23
e 21 24
e 21 25
e 21 37
e 21 38
e 21 61
e 21 62
e 22 23
e 22 24
e 22 25
e 22 31
e 22 32
e 22 55
e 22 56
e 23 24
e 23 25
e 23 33
e 23 34
e 23 57
e 23 58
e 24 25
e 24 35
e 24 36
e 24 59
e 24 60
e 25 37
e 25 38
e 25 61
e 25 62
e 26 53
e 26 54
e 27 47
e 27 48
e 28 49
e 28 50
e 29 51
e 29 52
e 30 53
e 30 54
e 31 42
e 31 58
e 31 66
e 31 78
e 32 41
e 32 57
e 32 65
e 32 77
e 33 40
e 33 44
e 33 56
e 33 60
e 34 39
e 34 43
e 34 55
e 34 59
e 35 42
e 35 46
e 35 58
e 35 62
e 36 41
e 36 45
e 36 57
e 36 61
e 37 44
e 37 60
e 38 43
e 38 59
e 39 50
e 39 64
e 39 68
e 40 49
e 40 63
e 40 67
e 41 48
e 41 52
e 42 47
e 42 51
e 43 50
e 43 54
e 44 49
e 44 53
e 45 52
e 46 51
e 47 66
e 47 72
e 47 80
e 48 65
e 48 71
e 48 79
e 49 70
e 49 74
e 50 69
e 50 73
e 51 72
e 51 76
e 52 71
e 52 75
e 53 74
e 54 73
e 55 58
e 55 64
e 55 78
e 56 57
e 56 63
e 56 77
e 57 60
e 58 59
e 59 62
e 60 61
e 63 66
e 63 78
e 64 65
e 64 77
e 65 68
e 66 67
e 67 70
e 67 80
e 68 69
e 68 79
e 77 78
